p cnf 20 11
a 1 2 3 0
e 4 0
a 5 0
e 6 7 0
a 8 9 0
e 10 0
a 11 0
e 12 13 14 15 0
a 16 17 18 0
e 19 20 0
19 -9 5 15 -18 0
18 -2 -16 0
10 -20 -5 -11 0
19 7 -8 18 -14 0
-11 -18 0
15 -11 16 3 9 0
1 17 -20 12 -16 0
-6 10 -20 11 -5 0
17 -12 -7 -8 13 0
6 -14 -9 -17 -4 0
-7 2 9 4 -14 0
